13
11
23
8 11 58
3 8 80
3 5 17
5 10 18
1 10 31
1 4 34
4 7 80
7 13 76
9 13 21
9 12 16
2 12 34
2 6 51
6 11 46
2 8 72
9 11 54
4 9 14
1 8 3
4 6 45
3 4 75
2 3 27
11 12 30
3 12 44
4 8 74
